NAME : XML100_1275_26
DIMENSION : 101
NB_CLUSTERS : 5
CLUSTERING_ALG : KMeans
CLUSTERING_PARAMS : k(4)
CLUSTERS
1 0
2 5 6 10 14 15 19 20 25 27 32 38 40 41 42 43 45 49 50 54 57 59 70 75 77 82 88 89 93 94
3 1 7 8 12 18 21 24 26 30 31 34 44 48 52 55 61 67 68 71 74 76 80 81 87 90 96 97 98
4 3 4 9 11 13 16 17 22 29 33 35 36 37 39 46 51 60 62 63 66 69 72 73 79 83 84 85 86 91 99 100
5 2 23 28 47 53 56 58 64 65 78 92 95
EOF